(set-logic QF_S)
(declare-fun _var_0xINPUT_102810_() String)
(declare-fun __woorpje_diseq_pref0_() String)
(declare-fun __woorpje_diseq_suf_l0_() String)
(declare-fun __woorpje_diseq_suf_r0_() String)
(assert (=(str.++ _var_0xINPUT_102810_  "")(str.++ __woorpje_diseq_pref0_  "5" __woorpje_diseq_suf_l0_  "")) )
(assert (=(str.++  "VGv6Ll5aTa" "")(str.++ __woorpje_diseq_pref0_  "T" __woorpje_diseq_suf_r0_  "")) )
(check-sat)
